data/CVRPLIB/Vrp-Set-XML100/instances/XML100_3116_25.vrp
NAME : XML100_3116_25
COMMENT : Generated by Queiroga, Sadykov, Uchoa, and Vidal (2021)
TYPE : CVRP
DIMENSION : 101
EDGE_WEIGHT_TYPE : EUC_2D
CAPACITY : 38
NODE_COORD_SECTION
1    0    0   
2    733  678 
3    140  815 
4    792  273 
5    544  457 
6    988  76  
7    839  340 
8    915  863 
9    186  910 
10   997  589 
11   836  410 
12   192  462 
13   66   327 
14   803  621 
15   544  589 
16   309  904 
17   524  413 
18   716  854 
19   557  448 
20   373  315 
21   158  310 
22   168  30  
23   785  228 
24   159  33  
25   982  869 
26   418  426 
27   963  905 
28   377  936 
29   944  331 
30   539  660 
31   559  601 
32   543  347 
33   167  854 
34   582  997 
35   90   763 
36   289  186 
37   263  102 
38   526  408 
39   982  933 
40   219  964 
41   513  132 
42   496  819 
43   650  412 
44   489  212 
45   149  29  
46   651  541 
47   233  202 
48   924  861 
49   612  70  
50   477  457 
51   247  104 
52   121  750 
53   478  943 
54   875  786 
55   673  600 
56   783  621 
57   484  179 
58   910  745 
59   195  312 
60   739  707 
61   602  919 
62   699  678 
63   343  41  
64   475  688 
65   703  724 
66   754  419 
67   270  797 
68   888  873 
69   476  64  
70   528  390 
71   55   880 
72   330  167 
73   133  434 
74   955  685 
75   101  751 
76   886  683 
77   84   562 
78   755  778 
79   76   63  
80   234  304 
81   365  988 
82   23   419 
83   571  73  
84   749  394 
85   924  568 
86   397  172 
87   423  172 
88   408  176 
89   170  563 
90   45   881 
91   30   223 
92   202  471 
93   489  407 
94   955  829 
95   198  292 
96   782  607 
97   923  268 
98   241  351 
99   517  857 
100  974  257 
101  826  561 
DEMAND_SECTION
1    0   
2    1   
3    1   
4    1   
5    1   
6    1   
7    1   
8    1   
9    1   
10   1   
11   1   
12   1   
13   1   
14   1   
15   1   
16   1   
17   1   
18   1   
19   1   
20   1   
21   1   
22   1   
23   1   
24   1   
25   1   
26   1   
27   1   
28   1   
29   1   
30   1   
31   1   
32   1   
33   1   
34   1   
35   1   
36   1   
37   1   
38   1   
39   1   
40   1   
41   1   
42   1   
43   1   
44   1   
45   1   
46   1   
47   1   
48   1   
49   1   
50   1   
51   1   
52   1   
53   1   
54   1   
55   1   
56   1   
57   1   
58   1   
59   1   
60   1   
61   1   
62   1   
63   1   
64   1   
65   1   
66   1   
67   1   
68   1   
69   1   
70   1   
71   1   
72   1   
73   1   
74   1   
75   1   
76   1   
77   1   
78   1   
79   1   
80   1   
81   1   
82   1   
83   1   
84   1   
85   1   
86   1   
87   1   
88   1   
89   1   
90   1   
91   1   
92   1   
93   1   
94   1   
95   1   
96   1   
97   1   
98   1   
99   1   
100  1   
101  1   
DEPOT_SECTION
1
-1
EOF
