data/CVRPLIB/Vrp-Set-XML100/solutions/XML100_3116_25.sol
Route #1: 90 12 81 76 51 74 34 89 70 2 32 8 39 80 27 15 66 88 91 11 72 97 79 94 58 20
Route #2: 19 92 45 54 61 64 59 1 55 95 13 100 84 9 73 75 57 93 24 38 26 47 7 67 53 77 17 60 33 52 98 41 63 29 30 14 49 25
Route #3: 44 23 21 50 36 62 68 40 82 48 22 3 5 99 96 28 6 10 65 83 42 18 4 16 37 69 31 43 56 86 87 85 71 35 46 78
Cost 9524
